CMD:
./solvers/bin/cadical --plain --no-reduce -t 1600 ./data/cnfs//oski15a14b05s/oski15a14b05s.3.cnf

c --- [ banner ] -------------------------------------------------------------
c 
c CaDiCaL SAT Solver
c Copyright (c) 2016-2024
c A. Biere, M. Fleury, N. Froleyks, K. Fazekas, F. Pollitt, T. Faller
c JKU Linz, University of Freiburg, TU Wien
c 
c Version 2.1.3 5296d3d2a9bf48c154ab2acb5e44625776d821bf
c g++ (Gentoo 12.3.1_p20230526 p2) 12.3.1 20230526 -Wall -Wextra -O3 -DNDEBUG
c Sat Aug 9 07:26:21 PDT 2025 Linux cedar2.int.cedar.computecanada.ca 5.14.0-362.24.2.el9_3.x86_64 x86_64
c 
c --- [ limit ] --------------------------------------------------------------
c 
c setting time limit to 1600 seconds real time (due to '-t 1600')
c 
c --- [ parsing input ] ------------------------------------------------------
c 
c reading DIMACS file from './data/cnfs//oski15a14b05s/oski15a14b05s.3.cnf'
c opening file to read './data/cnfs//oski15a14b05s/oski15a14b05s.3.cnf'
c found 'p cnf 178943 517047' header
c parsed 517047 clauses in 0.09 seconds process time
c 
c --- [ options ] ------------------------------------------------------------
c 
c   --compact=false                (different from default 'true')
c   --decompose=false              (different from default 'true')
c   --deduplicate=false            (different from default 'true')
c   --elim=false                   (different from default 'true')
c   --probe=false                  (different from default 'true')
c   --reduce=false                 (different from default 'true')
c   --subsume=false                (different from default 'true')
c   --ternary=false                (different from default 'true')
c   --transred=false               (different from default 'true')
c   --vivify=false                 (different from default 'true')
c 
c --- [ solving ] ------------------------------------------------------------
c 
c time measured in process time since initialization
c 
c  seconds  reductions  redundant  irredundant
c         MB    restarts       trail       variables
c          level   conflicts       glue          remaining
c 
c *  0.09 72  0 0   0    0    0  0% 0 398169 112077 63%
c {  0.11 73  0 0   0    0    0  0% 0 398169 112077 63%
c i  0.11 73  1 0   0    1    0 38% 0 398169 112076 63%
c i  0.11 73  1 0   0    2    0 38% 0 398169 112075 63%
c i  0.11 73  1 0   0    3    0 38% 0 398169 112074 63%
c i  0.11 73  1 0   1    4    0 38% 0 398169 112073 63%
c i  0.11 73  1 0   1    5    0 38% 0 398169 112072 63%
c i  0.11 73  1 0   1    6    0 38% 0 398169 112071 63%
c i  0.11 73  1 0   2    7    0 38% 0 398169 112070 63%
c i  0.11 73  1 0   2    8    0 38% 0 398169 112069 63%
c i  0.11 73  1 0   2    9    0 38% 0 398169 112068 63%
c i  0.11 73  1 0   3   10    0 38% 0 398169 112067 63%
c i  0.11 73  1 0   3   11    0 38% 0 398169 112066 63%
c i  0.11 73  1 0   3   12    0 38% 0 398169 112065 63%
c i  0.11 73  1 0   4   13    0 38% 0 398169 112064 63%
c i  0.11 73  1 0   4   14    0 38% 0 398169 112063 63%
c i  0.11 73  1 0   4   15    0 38% 0 398169 112062 63%
c i  0.11 73  1 0   5   16    0 38% 0 398169 112061 63%
c i  0.12 73  1 0   5   17    0 38% 0 398169 112060 63%
c i  0.12 73  1 0   5   18    0 38% 0 398169 112059 63%
c 
c  seconds  reductions  redundant  irredundant
c         MB    restarts       trail       variables
c          level   conflicts       glue          remaining
c 
c i  0.12 73  1 0   6   19    0 38% 0 398169 112058 63%
c i  0.12 73  1 0   6   20    0 38% 0 398169 112057 63%
c i  0.12 73  1 0   6   21    0 38% 0 398169 112056 63%
c i  0.12 73  1 0   7   22    0 38% 0 398169 112055 63%
c i  0.12 73  1 0   7   23    0 38% 0 398169 112054 63%
c i  0.12 73  1 0   7   24    0 38% 0 398169 112053 63%
c i  0.12 73  1 0   8   25    0 38% 0 398169 112052 63%
c i  0.12 73  1 0   8   26    0 38% 0 398169 112051 63%
c i  0.12 73  1 0   8   27    0 38% 0 398169 112050 63%
c i  0.12 73  1 0   9   28    0 38% 0 398169 112049 63%
c i  0.12 73  1 0   9   29    0 38% 0 398169 112048 63%
c i  0.12 73  1 0   9   30    0 38% 0 398169 112047 63%
c i  0.12 73  1 0  10   31    0 38% 0 398169 112046 63%
c i  0.12 73  1 0  10   32    0 38% 0 398169 112045 63%
c i  0.12 73  1 0  10   33    0 38% 0 398169 112044 63%
c i  0.12 73  1 0  11   34    0 38% 0 398169 112043 63%
c i  0.12 73  1 0  11   35    0 38% 0 398169 112042 63%
c i  0.12 73  1 0  11   36    0 38% 0 398169 112041 63%
c i  0.12 73  1 0  12   37    0 38% 0 398169 112040 63%
c i  0.12 73  1 0  12   38    0 38% 0 398169 112039 63%
c 
c  seconds  reductions  redundant  irredundant
c         MB    restarts       trail       variables
c          level   conflicts       glue          remaining
c 
c i  0.12 73  1 0  12   39    0 38% 0 398169 112038 63%
c i  0.12 73  1 0  13   40    0 38% 0 398169 112037 63%
c i  0.12 73  1 0  13   41    0 38% 0 398169 112036 63%
c i  0.12 73  1 0  13   42    0 38% 0 398169 112035 63%
... skipped 310 lines ...
c i  0.72 74 48 0 181 1376  891 46% 1 398169 104961 59%
c i  0.72 74 47 0 181 1378  892 46% 1 398169 104960 59%
c i  0.72 74 47 0 181 1379  892 46% 1 398169 104493 58%
c i  0.72 74 47 0 181 1381  892 46% 1 398169 104492 58%
c i  0.72 74 47 0 181 1382  892 46% 1 398169 104287 58%
c i  0.72 74 47 0 181 1385  893 46% 1 398169 101583 57%
c 
c  seconds  reductions  redundant  irredundant
c         MB    restarts       trail       variables
c          level   conflicts       glue         remaining
c 
c i  0.72 74 46 0 181 1386  893 46% 1 398169 98303 55%
c i  0.72 74 46 0 181 1389  895 46% 1 398169 98229 55%
c i  0.72 74 46 0 181 1391  896 46% 1 398169 98155 55%
c i  0.72 74 45 0 181 1395  899 46% 1 398169 98081 55%
c i  0.72 74 45 0 181 1397  900 46% 1 398169 98007 55%
c i  0.72 74 45 0 181 1401  902 46% 1 398169 97933 55%
c i  0.73 74 45 0 181 1403  903 46% 1 398169 97859 55%
c i  0.73 74 44 0 181 1408  904 46% 1 398169 97785 55%
c i  0.73 74 44 0 181 1410  905 46% 1 398169 97711 55%
c i  0.73 74 43 0 181 1414  906 46% 1 398169 97637 55%
c i  0.73 74 43 0 181 1416  907 46% 1 398169 97563 55%
c i  0.73 74 43 0 181 1417  907 46% 1 398169 96918 54%
c i  0.73 74 43 0 181 1418  907 46% 1 398169 96917 54%
c i  0.73 74 43 0 181 1420  908 46% 1 398169 96843 54%
c i  0.73 74 43 0 181 1421  908 46% 1 398169 96769 54%
c i  0.73 74 43 0 181 1423  909 46% 1 398169 96695 54%
c i  0.73 74 42 0 181 1425  910 46% 1 398169 96621 54%
c i  0.73 74 42 0 181 1429  911 46% 1 398169 96547 54%
c i  0.73 74 42 0 181 1431  912 46% 1 398169 96473 54%
c i  0.73 74 42 0 181 1432  912 46% 1 398169 96167 54%
c 
c  seconds  reductions  redundant  irredundant
c         MB    restarts       trail       variables
c          level   conflicts       glue         remaining
c 
c i  0.73 74 42 0 181 1433  912 46% 1 398169 96166 54%
c i  0.73 74 41 0 181 1434  912 46% 1 398169 95121 53%
c i  0.73 74 41 0 181 1435  912 46% 1 398169 95047 53%
c i  0.73 74 41 0 181 1436  912 46% 1 398169 94973 53%
c i  0.73 74 41 0 181 1438  913 46% 1 398169 94899 53%
c i  0.73 74 41 0 181 1440  914 46% 1 398169 94584 53%
c i  0.73 74 41 0 181 1441  914 46% 1 398169 94541 53%
c i  0.73 74 41 0 181 1443  914 46% 1 398169 94393 53%
c i  0.73 74 41 0 181 1444  914 46% 1 398169 93170 52%
c i  0.73 74 40 0 181 1445  914 46% 1 398169 93032 52%
c ]  0.73 74 40 0 181 1447  914 46% 1 398169 91585 51%
c 0  0.73 74 40 0 181 1447  914 46% 1 398169 91585 51%
c 
c --- [ result ] -------------------------------------------------------------
c 
s UNSATISFIABLE
c 
c --- [ run-time profiling ] -------------------------------------------------
c 
c process time taken by individual solving procedures
c (percentage relative to process time for solving)
c 
c         0.64   99.98% search
c         0.48   75.82% unstable
c         0.13   20.99% stable
c         0.09   14.28% parse
c         0.02    3.18% lucky
c         0.00    0.00% simplify
c   =================================
c         0.64   87.45% solve
c 
c last line shows process time for solving
c (percentage relative to total process time)
c 
c --- [ statistics ] ---------------------------------------------------------
c 
c chronological:               969        66.97 %  of conflicts
c conflicts:                  1447      2271.50    per second
c decisions:                310632    487630.74    per second
c fixed:                     87358        48.82 %  of all variables
c learned:                    1301        89.91 %  per conflict
c learned_lits:               7188       100.00 %  learned literals
c minimized:                     0         0.00 %  learned literals
c shrunken:                   2514        34.97 %  learned literals
c minishrunken:                464         6.46 %  learned literals
c otfs:                         10         0.69 %  of conflict
c propagations:           10359261        16.26 M  per second
c rephased:                      1      1447.00    interval
c restarts:                    181         7.99    interval
c stabilizing:                   1        30.82 %  of conflicts
c subsumed:                     47         0.01 %  of all clauses
c strengthened:                 10         0.00 %  of all clauses
c 
c seconds are measured in process time for solving
c 
c --- [ resources ] ----------------------------------------------------------
c 
c total process time since initialization:         0.73    seconds
c total real time since initialization:            0.74    seconds
c maximum resident set size of process:           72.94    MB
c 
c --- [ shutting down ] ------------------------------------------------------
c 
c exit 20
